p cnf 7230 16
632 1110 -1300 0
622 1107 -1298 0
620 1104 -1296 0
610 1156 -1294 0
-632 -1301 0
-622 -1299 0
-620 -1297 0
-610 -1295 0
1300 1301 0
1298 1299 0
1296 1297 0
1294 1295 0
-1110 -1301 0
-1107 -1299 0
-1104 -1297 0
-1156 -1295 0
